_main.fzn
var 3..3: q_0;
var 0..5: q_1:: output_var;
var 0..5: q_2:: output_var;
var 0..5: q_3:: output_var;
var 0..5: q_4:: output_var;
solve  satisfy;
